
Log started (V11.0.0) Sun Apr 13 14:42:35 2008

Tried aggregator 1 time.
Reduced MIP has 510 rows, 5001 columns, and 10010 nonzeros.
Presolve time =    0.03 sec.
Clique table members: 500.
MIP emphasis: balance optimality and feasibility.
MIP search method: dynamic search.
Parallel mode: none, using 1 thread.
Root relaxation solution time =    0.12 sec.

        Nodes                                         Cuts/
   Node  Left     Objective  IInf  Best Integer     Best Node    ItCnt     Gap

*     0+    0                        24888.0000      453.5758      575   98.18%
*     0+    0                          470.0000      453.5758      575    3.49%
      0     0      454.0000    18      470.0000      Fract: 9      591    3.40%
      0     0      454.0000    20      470.0000     Covers: 1      593    3.40%
      0     0      454.0000    20      470.0000     Covers: 1      594    3.40%
*     0+    0                          469.0000      454.0000      594    3.20%
*     0+    0                          463.0000      454.0000      594    1.94%
*     0+    0                          462.0000      454.0000      594    1.73%
      0     2      454.0000    20      462.0000      454.0000      594    1.73%
*    30+   26                          458.0000      454.0000     1981    0.87%
    100    74      457.0000    13      458.0000      454.0000     4114    0.87%
*   140+   42                          457.0000      454.0000     5003    0.66%
    200    93      456.0000    18      457.0000      454.0000     6057    0.66%
    300   149      454.0000    16      457.0000      454.0000     7657    0.66%
    400   215      456.0000    16      457.0000      454.0000    10083    0.66%
    500   268    infeasible            457.0000      454.0000    12125    0.66%
    600   283      456.0000    14      457.0000      454.0000    15900    0.66%
    700   264      456.0000    15      457.0000      454.0000    19342    0.66%
    800   255      456.0000    17      457.0000      454.0000    22515    0.66%
    900   262      456.0000    20      457.0000      454.0000    28366    0.66%
   1000   300      455.0000    23      457.0000      454.0000    33723    0.66%
Elapsed time =  14.05 sec. (tree size =  0.22 MB, solutions = 7)
   1100   355      455.0000    22      457.0000      454.0000    39596    0.66%
   1200   440      455.0000    30      457.0000      454.0000    43743    0.66%
*  1213+  229                          456.0000      454.0000    44119    0.44%
   1300   298      455.0000    22      456.0000      454.0000    51202    0.44%
   1400   379      455.0000    25      456.0000      454.0000    56452    0.44%
   1500   465      454.0000    25      456.0000      454.0000    60596    0.44%
   1600   542      455.0000    19      456.0000      454.0000    65911    0.44%
   1700   617      455.0000    23      456.0000      454.0000    70956    0.44%
   1800   694      455.0000    22      456.0000      454.0000    75265    0.44%
   1900   777      455.0000    26      456.0000      454.0000    79590    0.44%
   2000   861      455.0000    27      456.0000      454.0000    84201    0.44%
Elapsed time =  24.97 sec. (tree size =  0.67 MB, solutions = 8)
   2100   954      455.0000    20      456.0000      454.0000    87754    0.44%
   2200  1043      455.0000    27      456.0000      454.0000    92425    0.44%
   2300  1125    infeasible            456.0000      454.0000    96864    0.44%
   2400  1207      455.0000    23      456.0000      454.0000   102208    0.44%
   2500  1294      454.0000    43      456.0000      454.0000   108842    0.44%
   2600  1382      455.0000    22      456.0000      454.0000   114514    0.44%
   2700  1469    infeasible            456.0000      454.0000   119709    0.44%
   2800  1557      455.0000    25      456.0000      454.0000   125398    0.44%
   2900  1637      455.0000    27      456.0000      454.0000   130985    0.44%
   3000  1729    infeasible            456.0000      454.0000   135353    0.44%
Elapsed time =  35.86 sec. (tree size =  1.42 MB, solutions = 8)
   3100  1816      455.0000    19      456.0000      454.0000   142817    0.44%
   3200  1895      455.0000    32      456.0000      454.0000   149057    0.44%
   3300  1983      455.0000    38      456.0000      454.0000   154714    0.44%
   3400  2074      455.0000    26      456.0000      454.0000   159000    0.44%
   3500  2162      455.0000    32      456.0000      454.0000   163058    0.44%
   3600  2248      455.0000    33      456.0000      454.0000   168177    0.44%
   3700  2334      454.0000    41      456.0000      454.0000   173927    0.44%
   3800  2417      455.0000    20      456.0000      454.0000   181669    0.44%
   3900  2512      455.0000    27      456.0000      454.0000   186829    0.44%
   4000  2602      455.0000    25      456.0000      454.0000   194183    0.44%
Elapsed time =  51.33 sec. (tree size =  2.16 MB, solutions = 8)
   4100  2682      454.0112    76      456.0000      454.0000   200059    0.44%
   4200  2771      455.0000    23      456.0000      454.0000   204648    0.44%
   4300  2866      455.0000    25      456.0000      454.0000   209730    0.44%
   4400  2948      455.0000    29      456.0000      454.0000   214354    0.44%
   4500  3034      455.0000    26      456.0000      454.0000   219855    0.44%
   4600  3122      455.0000    28      456.0000      454.0000   226085    0.44%
   4700  3215      455.0000    27      456.0000      454.0000   231119    0.44%
   4800  3307      455.0000    20      456.0000      454.0000   236731    0.44%
   4900  3392      455.0000    27      456.0000      454.0000   243951    0.44%
   5000  3484      455.0000    19      456.0000      454.0000   247467    0.44%
Elapsed time =  64.42 sec. (tree size =  2.88 MB, solutions = 8)
   5100  3577      455.0000    27      456.0000      454.0000   250592    0.44%
   5200  3663      455.0000    31      456.0000      454.0000   256462    0.44%
   5300  3743      455.0000    32      456.0000      454.0000   262466    0.44%
   5400  3836      455.0000    31      456.0000      454.0000   266967    0.44%
   5500  3923      455.0000    25      456.0000      454.0000   273001    0.44%
   5600  4016      455.0000    26      456.0000      454.0000   277048    0.44%
   5700  4096      455.0000    26      456.0000      454.0000   282415    0.44%
   5800  4186      455.0000    20      456.0000      454.0000   288209    0.44%
   5900  4277      455.0000    25      456.0000      454.0000   293985    0.44%
   6000  4368      455.0000    30      456.0000      454.0000   298078    0.44%
Elapsed time =  76.34 sec. (tree size =  3.67 MB, solutions = 8)
   6100  4450      455.0000    34      456.0000      454.0000   305828    0.44%
   6200  4540      455.0000    26      456.0000      454.0000   312231    0.44%
   6300  4631      455.0000    26      456.0000      454.0000   317121    0.44%
   6400  4715      455.0000    30      456.0000      454.0000   322943    0.44%
   6500  4801      455.0000    35      456.0000      454.0000   328812    0.44%
   6600  4879      455.0000    28      456.0000      454.0000   334716    0.44%
   6700  4970      455.0000    26      456.0000      454.0000   340968    0.44%
   6800  5065      455.0000    21      456.0000      454.0000   345987    0.44%
   6900  5143      455.0000    31      456.0000      454.0000   351691    0.44%
   7000  5231      455.0000    31      456.0000      454.0000   357316    0.44%
Elapsed time =  89.22 sec. (tree size =  4.40 MB, solutions = 8)
   7100  5325      454.0000    55      456.0000      454.0000   362567    0.44%
   7200  5416      455.0000    26      456.0000      454.0000   368288    0.44%
   7300  5499      455.0000    35      456.0000      454.0000   375611    0.44%
   7400  5579      455.0000    62      456.0000      454.0000   381642    0.44%
   7500  5674      455.0000    34      456.0000      454.0000   385932    0.44%
   7600  5764      455.0000    20      456.0000      454.0000   390716    0.44%
   7700  5850      455.0000    41      456.0000      454.0000   398224    0.44%
   7800  5943      455.0000    39      456.0000      454.0000   402448    0.44%
   7900  6038      455.0000    24      456.0000      454.0000   406863    0.44%
   8000  6118      455.0000    29      456.0000      454.0000   412482    0.44%
Elapsed time = 101.94 sec. (tree size =  5.15 MB, solutions = 8)
   8100  6211      455.0000    38      456.0000      454.0000   416484    0.44%
   8200  6279      455.0000    32      456.0000      454.0000   423291    0.44%
   8300  6374      455.0000    30      456.0000      454.0000   427709    0.44%
   8400  6467      455.0000    24      456.0000      454.0000   432639    0.44%
   8500  6549      455.0000    35      456.0000      454.0000   437157    0.44%
   8600  6644      455.0000    26      456.0000      454.0000   441252    0.44%
   8700  6737      455.0000    23      456.0000      454.0000   446095    0.44%
   8800  6823      455.0000    26      456.0000      454.0000   451862    0.44%
   8900  6908      455.0000    24      456.0000      454.0000   456356    0.44%
   9000  7001      455.0000    32      456.0000      454.0000   461349    0.44%
Elapsed time = 115.13 sec. (tree size =  5.90 MB, solutions = 8)
   9100  7096      455.0000    26      456.0000      454.0000   463558    0.44%
   9200  7190      455.0000    14      456.0000      454.0000   467287    0.44%
   9300  7279      455.0000    31      456.0000      454.0000   471878    0.44%
   9400  7364      455.0000    62      456.0000      454.0000   478408    0.44%
   9500  7456      455.0000    18      456.0000      454.0000   482516    0.44%
   9600  7549      455.0000    33      456.0000      454.0000   488291    0.44%
   9700  7641      455.0000    37      456.0000      454.0000   494270    0.44%
   9800  7732      455.0000    19      456.0000      454.0000   498613    0.44%
   9900  7823      455.0000    29      456.0000      454.0000   503618    0.44%
  10000  7911      455.0000    29      456.0000      454.0000   508443    0.44%
Elapsed time = 129.89 sec. (tree size =  6.68 MB, solutions = 8)
  10100  7998      455.0000    29      456.0000      454.0000   517448    0.44%
  10200  8091      455.0000    27      456.0000      454.0000   522053    0.44%
  10300  8184      455.0000    21      456.0000      454.0000   527026    0.44%
  10400  8277      455.0000    21      456.0000      454.0000   530798    0.44%
  10500  8372      455.0000    21      456.0000      454.0000   535845    0.44%
  10600  8465      455.0000    22      456.0000      454.0000   539943    0.44%
  10700  8553      455.0000    26      456.0000      454.0000   544693    0.44%
  10800  8641      455.0000    21      456.0000      454.0000   549264    0.44%
  10900  8730      455.0000    27      456.0000      454.0000   553167    0.44%
  11000  8826      455.0000    31      456.0000      454.0000   557096    0.44%
Elapsed time = 143.97 sec. (tree size =  7.61 MB, solutions = 8)
* 11033+  236                          455.0000      454.0000   558402    0.22%
  11100   189      454.0000    77      455.0000      454.0000   593018    0.22%
  11200   160      454.0000    92      455.0000      454.0000   640839    0.22%
  11300    94    infeasible            455.0000      454.0000   697901    0.22%
  11400    38      454.0000    72      455.0000      454.0000   755688    0.22%

Cover cuts applied:  832
Mixed integer rounding cuts applied:  21
Zero-half cuts applied:  1
Gomory fractional cuts applied:  10

Solution pool: 9 solutions saved.

MIP - Integer optimal solution:  Objective = 4.5500000000e+002
Solution time =  218.91 sec.  Iterations = 783051  Nodes = 11451


Incumbent solution
Variable Name           Solution Value
Cmax                        455.000000
X_1_7                         1.000000
X_2_4                         1.000000
X_3_6                         1.000000
X_4_8                         1.000000
X_5_4                         1.000000
X_6_6                         1.000000
X_7_6                         1.000000
X_8_3                         1.000000
X_9_8                         1.000000
X_10_6                        1.000000
X_11_10                       1.000000
X_12_4                        1.000000
X_13_7                        1.000000
X_14_8                        1.000000
X_15_9                        1.000000
X_16_10                       1.000000
X_17_4                        1.000000
X_18_1                        1.000000
X_19_3                        1.000000
X_20_7                        1.000000
X_21_3                        1.000000
X_22_8                        1.000000
X_23_6                        1.000000
X_24_10                       1.000000
X_25_3                        1.000000
X_26_8                        1.000000
X_27_6                        1.000000
X_28_3                        1.000000
X_29_5                        1.000000
X_30_7                        1.000000
X_31_3                        1.000000
X_32_2                        1.000000
X_33_2                        1.000000
X_34_7                        1.000000
X_35_4                        1.000000
X_36_3                        1.000000
X_37_1                        1.000000
X_38_7                        1.000000
X_39_7                        1.000000
X_40_7                        1.000000
X_41_4                        1.000000
X_42_10                       1.000000
X_43_9                        1.000000
X_44_9                        1.000000
X_45_3                        1.000000
X_46_1                        1.000000
X_47_1                        1.000000
X_48_4                        1.000000
X_49_9                        1.000000
X_50_8                        1.000000
X_51_1                        1.000000
X_52_7                        1.000000
X_53_7                        1.000000
X_54_3                        1.000000
X_55_8                        1.000000
X_56_3                        1.000000
X_57_6                        1.000000
X_58_6                        1.000000
X_59_6                        1.000000
X_60_8                        1.000000
X_61_2                        1.000000
X_62_1                        1.000000
X_63_6                        1.000000
X_64_1                        1.000000
X_65_1                        1.000000
X_66_2                        1.000000
X_67_4                        1.000000
X_68_5                        1.000000
X_69_1                        1.000000
X_70_4                        1.000000
X_71_3                        1.000000
X_72_2                        1.000000
X_73_6                        1.000000
X_74_1                        1.000000
X_75_8                        1.000000
X_76_9                        1.000000
X_77_5                        1.000000
X_78_7                        1.000000
X_79_7                        1.000000
X_80_6                        1.000000
X_81_10                       1.000000
X_82_5                        1.000000
X_83_1                        1.000000
X_84_7                        1.000000
X_85_8                        1.000000
X_86_8                        1.000000
X_87_3                        1.000000
X_88_3                        1.000000
X_89_8                        1.000000
X_90_10                       1.000000
X_91_9                        1.000000
X_92_2                        1.000000
X_93_4                        1.000000
X_94_1                        1.000000
X_95_5                        1.000000
X_96_10                       1.000000
X_97_2                        1.000000
X_98_2                        1.000000
X_99_1                        1.000000
X_100_10                      1.000000
X_101_6                       1.000000
X_102_9                       1.000000
X_103_9                       1.000000
X_104_1                       1.000000
X_105_6                       1.000000
X_106_4                       1.000000
X_107_6                       1.000000
X_108_6                       1.000000
X_109_10                      1.000000
X_110_3                       1.000000
X_111_7                       1.000000
X_112_2                       1.000000
X_113_10                      1.000000
X_114_10                      1.000000
X_115_1                       1.000000
X_116_7                       1.000000
X_117_3                       1.000000
X_118_7                       1.000000
X_119_2                       1.000000
X_120_1                       1.000000
X_121_10                      1.000000
X_122_2                       1.000000
X_123_5                       1.000000
X_124_8                       1.000000
X_125_7                       1.000000
X_126_4                       1.000000
X_127_4                       1.000000
X_128_5                       1.000000
X_129_4                       1.000000
X_130_8                       1.000000
X_131_6                       1.000000
X_132_5                       1.000000
X_133_9                       1.000000
X_134_8                       1.000000
X_135_4                       1.000000
X_136_3                       1.000000
X_137_2                       1.000000
X_138_7                       1.000000
X_139_5                       1.000000
X_140_2                       1.000000
X_141_8                       1.000000
X_142_8                       1.000000
X_143_8                       1.000000
X_144_1                       1.000000
X_145_5                       1.000000
X_146_1                       1.000000
X_147_9                       1.000000
X_148_3                       1.000000
X_149_7                       1.000000
X_150_3                       1.000000
X_151_3                       1.000000
X_152_4                       1.000000
X_153_1                       1.000000
X_154_3                       1.000000
X_155_1                       1.000000
X_156_5                       1.000000
X_157_6                       1.000000
X_158_9                       1.000000
X_159_7                       1.000000
X_160_4                       1.000000
X_161_2                       1.000000
X_162_8                       1.000000
X_163_10                      1.000000
X_164_9                       1.000000
X_165_6                       1.000000
X_166_2                       1.000000
X_167_2                       1.000000
X_168_10                      1.000000
X_169_8                       1.000000
X_170_5                       1.000000
X_171_6                       1.000000
X_172_5                       1.000000
X_173_10                      1.000000
X_174_8                       1.000000
X_175_5                       1.000000
X_176_6                       1.000000
X_177_2                       1.000000
X_178_5                       1.000000
X_179_9                       1.000000
X_180_10                      1.000000
X_181_2                       1.000000
X_182_10                      1.000000
X_183_1                       1.000000
X_184_2                       1.000000
X_185_7                       1.000000
X_186_5                       1.000000
X_187_8                       1.000000
X_188_4                       1.000000
X_189_3                       1.000000
X_190_10                      1.000000
X_191_9                       1.000000
X_192_10                      1.000000
X_193_4                       1.000000
X_194_3                       1.000000
X_195_7                       1.000000
X_196_4                       1.000000
X_197_9                       1.000000
X_198_5                       1.000000
X_199_5                       1.000000
X_200_2                       1.000000
X_201_1                       1.000000
X_202_9                       1.000000
X_203_8                       1.000000
X_204_10                      1.000000
X_205_9                       1.000000
X_206_10                      1.000000
X_207_6                       1.000000
X_208_6                       1.000000
X_209_4                       1.000000
X_210_5                       1.000000
X_211_4                       1.000000
X_212_3                       1.000000
X_213_9                       1.000000
X_214_6                       1.000000
X_215_3                       1.000000
X_216_3                       1.000000
X_217_1                       1.000000
X_218_3                       1.000000
X_219_8                       1.000000
X_220_1                       1.000000
X_221_8                       1.000000
X_222_7                       1.000000
X_223_9                       1.000000
X_224_3                       1.000000
X_225_4                       1.000000
X_226_1                       1.000000
X_227_2                       1.000000
X_228_4                       1.000000
X_229_7                       1.000000
X_230_10                      1.000000
X_231_1                       1.000000
X_232_4                       1.000000
X_233_5                       1.000000
X_234_5                       1.000000
X_235_5                       1.000000
X_236_2                       1.000000
X_237_9                       1.000000
X_238_9                       1.000000
X_239_8                       1.000000
X_240_6                       1.000000
X_241_10                      1.000000
X_242_8                       1.000000
X_243_9                       1.000000
X_244_6                       1.000000
X_245_9                       1.000000
X_246_6                       1.000000
X_247_1                       1.000000
X_248_10                      1.000000
X_249_3                       1.000000
X_250_10                      1.000000
X_251_10                      1.000000
X_252_9                       1.000000
X_253_8                       1.000000
X_254_7                       1.000000
X_255_7                       1.000000
X_256_3                       1.000000
X_257_6                       1.000000
X_258_10                      1.000000
X_259_8                       1.000000
X_260_10                      1.000000
X_261_7                       1.000000
X_262_1                       1.000000
X_263_8                       1.000000
X_264_6                       1.000000
X_265_5                       1.000000
X_266_8                       1.000000
X_267_10                      1.000000
X_268_4                       1.000000
X_269_2                       1.000000
X_270_6                       1.000000
X_271_2                       1.000000
X_272_5                       1.000000
X_273_5                       1.000000
X_274_2                       1.000000
X_275_8                       1.000000
X_276_8                       1.000000
X_277_5                       1.000000
X_278_8                       1.000000
X_279_6                       1.000000
X_280_6                       1.000000
X_281_4                       1.000000
X_282_4                       1.000000
X_283_9                       1.000000
X_284_8                       1.000000
X_285_10                      1.000000
X_286_2                       1.000000
X_287_6                       1.000000
X_288_5                       1.000000
X_289_9                       1.000000
X_290_7                       1.000000
X_291_5                       1.000000
X_292_1                       1.000000
X_293_5                       1.000000
X_294_8                       1.000000
X_295_10                      1.000000
X_296_8                       1.000000
X_297_10                      1.000000
X_298_3                       1.000000
X_299_2                       1.000000
X_300_6                       1.000000
X_301_7                       1.000000
X_302_5                       1.000000
X_303_8                       1.000000
X_304_2                       1.000000
X_305_10                      1.000000
X_306_10                      1.000000
X_307_1                       1.000000
X_308_9                       1.000000
X_309_6                       1.000000
X_310_2                       1.000000
X_311_4                       1.000000
X_312_8                       1.000000
X_313_8                       1.000000
X_314_10                      1.000000
X_315_7                       1.000000
X_316_7                       1.000000
X_317_9                       1.000000
X_318_3                       1.000000
X_319_1                       1.000000
X_320_7                       1.000000
X_321_8                       1.000000
X_322_9                       1.000000
X_323_7                       1.000000
X_324_1                       1.000000
X_325_6                       1.000000
X_326_6                       1.000000
X_327_9                       1.000000
X_328_2                       1.000000
X_329_4                       1.000000
X_330_9                       1.000000
X_331_3                       1.000000
X_332_7                       1.000000
X_333_8                       1.000000
X_334_6                       1.000000
X_335_1                       1.000000
X_336_5                       1.000000
X_337_3                       1.000000
X_338_1                       1.000000
X_339_1                       1.000000
X_340_3                       1.000000
X_341_8                       1.000000
X_342_1                       1.000000
X_343_2                       1.000000
X_344_2                       1.000000
X_345_2                       1.000000
X_346_2                       1.000000
X_347_10                      1.000000
X_348_3                       1.000000
X_349_10                      1.000000
X_350_2                       1.000000
X_351_6                       1.000000
X_352_7                       1.000000
X_353_8                       1.000000
X_354_9                       1.000000
X_355_2                       1.000000
X_356_1                       1.000000
X_357_2                       1.000000
X_358_9                       1.000000
X_359_1                       1.000000
X_360_3                       1.000000
X_361_9                       1.000000
X_362_4                       1.000000
X_363_4                       1.000000
X_364_10                      1.000000
X_365_2                       1.000000
X_366_1                       1.000000
X_367_1                       1.000000
X_368_2                       1.000000
X_369_2                       1.000000
X_370_2                       1.000000
X_371_1                       1.000000
X_372_1                       1.000000
X_373_3                       1.000000
X_374_5                       1.000000
X_375_10                      1.000000
X_376_8                       1.000000
X_377_7                       1.000000
X_378_5                       1.000000
X_379_8                       1.000000
X_380_9                       1.000000
X_381_2                       1.000000
X_382_5                       1.000000
X_383_3                       1.000000
X_384_2                       1.000000
X_385_8                       1.000000
X_386_8                       1.000000
X_387_10                      1.000000
X_388_3                       1.000000
X_389_10                      1.000000
X_390_4                       1.000000
X_391_9                       1.000000
X_392_9                       1.000000
X_393_9                       1.000000
X_394_9                       1.000000
X_395_10                      1.000000
X_396_8                       1.000000
X_397_7                       1.000000
X_398_6                       1.000000
X_399_4                       1.000000
X_400_1                       1.000000
X_401_2                       1.000000
X_402_4                       1.000000
X_403_6                       1.000000
X_404_1                       1.000000
X_405_1                       1.000000
X_406_8                       1.000000
X_407_6                       1.000000
X_408_1                       1.000000
X_409_2                       1.000000
X_410_2                       1.000000
X_411_2                       1.000000
X_412_3                       1.000000
X_413_10                      1.000000
X_414_8                       1.000000
X_415_10                      1.000000
X_416_6                       1.000000
X_417_4                       1.000000
X_418_9                       1.000000
X_419_8                       1.000000
X_420_3                       1.000000
X_421_6                       1.000000
X_422_1                       1.000000
X_423_9                       1.000000
X_424_9                       1.000000
X_425_10                      1.000000
X_426_9                       1.000000
X_427_9                       1.000000
X_428_5                       1.000000
X_429_5                       1.000000
X_430_6                       1.000000
X_431_3                       1.000000
X_432_5                       1.000000
X_433_7                       1.000000
X_434_2                       1.000000
X_435_3                       1.000000
X_436_9                       1.000000
X_437_2                       1.000000
X_438_7                       1.000000
X_439_7                       1.000000
X_440_8                       1.000000
X_441_6                       1.000000
X_442_2                       1.000000
X_443_2                       1.000000
X_444_2                       1.000000
X_445_10                      1.000000
X_446_3                       1.000000
X_447_10                      1.000000
X_448_9                       1.000000
X_449_9                       1.000000
X_450_1                       1.000000
X_451_1                       1.000000
X_452_10                      1.000000
X_453_3                       1.000000
X_454_4                       1.000000
X_455_3                       1.000000
X_456_1                       1.000000
X_457_3                       1.000000
X_458_5                       1.000000
X_459_4                       1.000000
X_460_2                       1.000000
X_461_7                       1.000000
X_462_6                       1.000000
X_463_9                       1.000000
X_464_1                       1.000000
X_465_5                       1.000000
X_466_7                       1.000000
X_467_2                       1.000000
X_468_4                       1.000000
X_469_4                       1.000000
X_470_1                       1.000000
X_471_8                       1.000000
X_472_10                      1.000000
X_473_7                       1.000000
X_474_5                       1.000000
X_475_9                       1.000000
X_476_10                      1.000000
X_477_6                       1.000000
X_478_1                       1.000000
X_479_9                       1.000000
X_480_7                       1.000000
X_481_3                       1.000000
X_482_9                       1.000000
X_483_8                       1.000000
X_484_5                       1.000000
X_485_4                       1.000000
X_486_2                       1.000000
X_487_10                      1.000000
X_488_9                       1.000000
X_489_6                       1.000000
X_490_9                       1.000000
X_491_7                       1.000000
X_492_6                       1.000000
X_493_9                       1.000000
X_494_7                       1.000000
X_495_3                       1.000000
X_496_2                       1.000000
X_497_6                       1.000000
X_498_4                       1.000000
X_499_8                       1.000000
X_500_6                       1.000000
All other variables in the range 1-5001 are 0.
